6 16 4 10
13 12 15 18 16 14 18 4 4 16 15 11 16 19 18 6 
3.56 0.68 3.45 3.19 5.25 0.24 5.64 7.47 0.18 7.73 2.61 0.15 5.03 3.59 2.2 4.47 
6.96 3.39 6.93 6.83 0.93 0.89 3.95 6.19 0.3 2.5 0.38 2.65 6.2 0.55 7.04 0.14 
1.41 0.8 7.4 7.94 1.57 3.18 3.97 3.47 1.08 0.96 7.47 3.5 3.72 7.43 0.18 3.31 
7.36 6.85 1.92 5.23 5.28 5.38 3.44 2.73 5.65 0.6 2.97 6.66 4.72 0.39 3.11 2.74 
4 4 4 4 4 4 4 4 4 4 4 4 4 4 4 4 
2.01 4.07 0.67 4.07 4.47 7.46 2.45 7.82 5.86 5.55 2.46 3.62 0.6 4.49 0.04 0.73 
1 1 1 1 1 1 1 1 1 1 1 1 1 1 1 1 
1 1 1 1 1 1 1 1 1 1 1 1 1 1 1 1 
1 1 1 1 1 1 1 1 1 1 1 1 1 1 1 1 
1 1 1 1 1 1 1 1 1 1 1 1 1 1 1 1 
1 1 1 1 1 1 1 1 1 1 1 1 1 1 1 1 
1 1 1 1 1 1 1 1 1 1 1 1 1 1 1 1 
0.01 0.01 0.01 0.01 0.01 0.01 0.01 0.01 0.01 0.01 0.01 0.01 0.01 0.01 0.01 0.01 
0.02 0.02 0.02 0.02 0.02 0.02 0.02 0.02 0.02 0.02 0.02 0.02 0.02 0.02 0.02 0.02 
0.03 0.03 0.03 0.03 0.03 0.03 0.03 0.03 0.03 0.03 0.03 0.03 0.03 0.03 0.03 0.03 
0.04 0.04 0.04 0.04 0.04 0.04 0.04 0.04 0.04 0.04 0.04 0.04 0.04 0.04 0.04 0.04 
0.05 0.05 0.05 0.05 0.05 0.05 0.05 0.05 0.05 0.05 0.05 0.05 0.05 0.05 0.05 0.05 
1 1 1 1 1 1 1 1 1 1 1 1 1 1 1 1 
